c FILE /home/rafael/Documents/HappySet/MIHS/inputs/happygen/output/graph_d_regular_k7_p0.4_v100_20241127_084103.txt
c SOURCE This is a d-regular graph formed for the happy graph colouring problem.
c DESCRIPTION It was generated using the problem generator of Rhyd Lewis
c
c GRAPH STATS
c Seed                             = -1938391130
c Number of Nodes                  = 100
c Number of colours k              = 7
c Number of pre-assignments        = 40
c Degree of all vertices           = 6
c Density                          = 0.0606061
c 
c The degrees of nodes 1 to 100, respectively, are as follows 
c [6, 6, 6, 6, 6, 6, 6, 6, 6, 6, 6, 6, 6, 6, 6, 6, 6, 6, 6, 6, 6, 6, 6, 6, 6, 6, 
c  6, 6, 6, 6, 6, 6, 6, 6, 6, 6, 6, 6, 6, 6, 6, 6, 6, 6, 6, 6, 6, 6, 6, 6, 6, 
c  6, 6, 6, 6, 6, 6, 6, 6, 6, 6, 6, 6, 6, 6, 6, 6, 6, 6, 6, 6, 6, 6, 6, 6, 6, 
c  6, 6, 6, 6, 6, 6, 6, 6, 6, 6, 6, 6, 6, 6, 6, 6, 6, 6, 6, 6, 6, 6, 6, 6] 
c  
p edge 100 300 7
e 1 14
e 1 16
e 1 24
e 1 31
e 1 43
e 1 61
e 2 18
e 2 37
e 2 39
e 2 40
e 2 57
e 2 85
e 3 9
e 3 28
e 3 42
e 3 55
e 3 60
e 3 71
e 4 10
e 4 16
e 4 42
e 4 45
e 4 48
e 4 49
e 5 11
e 5 48
e 5 64
e 5 76
e 5 82
e 5 100
e 6 14
e 6 19
e 6 57
e 6 63
e 6 80
e 6 93
e 7 24
e 7 26
e 7 30
e 7 72
e 7 78
e 7 87
e 8 26
e 8 60
e 8 62
e 8 72
e 8 85
e 8 96
e 9 11
e 9 36
e 9 51
e 9 84
e 9 87
e 10 24
e 10 43
e 10 61
e 10 63
e 10 89
e 11 12
e 11 28
e 11 34
e 11 76
e 12 45
e 12 50
e 12 52
e 12 65
e 12 84
e 13 17
e 13 77
e 13 81
e 13 82
e 13 85
e 13 97
e 14 26
e 14 28
e 14 33
e 14 88
e 15 31
e 15 35
e 15 53
e 15 59
e 15 69
e 15 81
e 16 46
e 16 84
e 16 87
e 16 88
e 17 31
e 17 51
e 17 57
e 17 62
e 17 94
e 18 35
e 18 45
e 18 83
e 18 84
e 18 89
e 19 39
e 19 60
e 19 77
e 19 98
e 19 99
e 20 41
e 20 64
e 20 66
e 20 69
e 20 70
e 20 74
e 21 27
e 21 31
e 21 40
e 21 53
e 21 88
e 21 96
e 22 33
e 22 42
e 22 43
e 22 56
e 22 73
e 22 75
e 23 36
e 23 46
e 23 50
e 23 72
e 23 91
e 23 92
e 24 78
e 24 90
e 24 98
e 25 28
e 25 32
e 25 40
e 25 51
e 25 72
e 25 73
e 26 55
e 26 62
e 26 71
e 27 47
e 27 61
e 27 63
e 27 78
e 27 100
e 28 51
e 28 65
e 29 39
e 29 40
e 29 54
e 29 79
e 29 86
e 29 89
e 30 35
e 30 62
e 30 67
e 30 71
e 30 74
e 31 48
e 31 55
e 32 44
e 32 63
e 32 88
e 32 91
e 32 92
e 33 61
e 33 96
e 33 98
e 33 99
e 34 57
e 34 60
e 34 74
e 34 86
e 34 91
e 35 41
e 35 59
e 35 68
e 36 43
e 36 45
e 36 82
e 36 93
e 37 58
e 37 60
e 37 62
e 37 91
e 37 100
e 38 50
e 38 54
e 38 75
e 38 85
e 38 87
e 38 92
e 39 45
e 39 88
e 39 92
e 40 44
e 40 92
e 41 56
e 41 65
e 41 70
e 41 93
e 42 59
e 42 70
e 42 95
e 43 49
e 43 90
e 44 58
e 44 64
e 44 76
e 44 96
e 45 63
e 46 51
e 46 52
e 46 62
e 46 81
e 47 67
e 47 80
e 47 91
e 47 97
e 47 98
e 48 73
e 48 80
e 48 84
e 49 56
e 49 66
e 49 99
e 49 100
e 50 56
e 50 79
e 50 95
e 51 68
e 52 60
e 52 66
e 52 77
e 52 78
e 53 64
e 53 69
e 53 70
e 53 96
e 54 82
e 54 86
e 54 94
e 54 96
e 55 57
e 55 75
e 55 81
e 56 64
e 56 94
e 57 97
e 58 75
e 58 76
e 58 82
e 58 98
e 59 66
e 59 68
e 59 70
e 61 80
e 61 91
e 63 98
e 64 82
e 65 83
e 65 90
e 65 95
e 66 73
e 66 90
e 67 72
e 67 76
e 67 89
e 67 93
e 68 69
e 68 86
e 68 95
e 69 79
e 69 81
e 70 99
e 71 79
e 71 80
e 71 83
e 72 74
e 73 77
e 73 92
e 74 83
e 74 89
e 75 97
e 75 99
e 76 99
e 77 85
e 77 97
e 78 86
e 78 100
e 79 83
e 79 94
e 80 89
e 81 93
e 83 85
e 84 93
e 86 88
e 87 94
e 87 95
e 90 94
e 90 100
e 95 97
n 2 3
n 3 7
n 5 4
n 7 2
n 8 7
n 13 3
n 21 1
n 22 4
n 23 3
n 24 2
n 28 7
n 35 2
n 36 3
n 38 2
n 39 3
n 41 2
n 44 4
n 47 6
n 52 7
n 54 2
n 57 3
n 58 4
n 59 2
n 60 7
n 61 6
n 62 7
n 63 5
n 67 6
n 68 2
n 70 2
n 73 4
n 79 5
n 80 6
n 81 3
n 83 5
n 84 4
n 87 2
n 89 6
n 99 2
n 100 4
